(declare-const a Real)
(declare-const b Real)
(declare-const c Real)
(assert (= (+ a b c) 3))
(assert (> a 0))
(assert (> b 0))
(assert (> c 0))
(assert (not (<= (+ 176 (* 36 (pow b 3)) (* 48 (pow a 2)) (* 48 (pow c 2)) (* -12 (pow 6 (/ 1 2)) (pow (+ (* 576 (pow a 2)) (* 576 (pow b 2)) (* 576 (pow c 2)) (* 288 a b) (* 288 a c) (* 288 b c)) (pow 2 -1))) (* 96 a b) (* 96 a c) (* 96 b c)) 0)))
(check-sat)
(get-model)
(exit)